11
-1 81 84 29 94 75 84 87 10 44 98
27 -1 15 56 9 92 46 23 63 23 91
47 40 -1 94 18 47 33 17 12 17 85
40 3 53 -1 78 57 69 4 78 74 4
93 58 10 20 -1 45 99 2 97 86 79
90 28 40 73 63 -1 75 93 45 8 98
52 70 70 66 48 87 -1 68 96 52 78
60 55 10 98 99 55 93 -1 71 98 79
63 32 20 72 31 63 15 21 -1 49 4
44 86 69 55 79 80 38 84 31 -1 58
52 54 11 40 40 58 58 13 99 99 -1
